NAME          
ROWS
 N  OBJ
 L  c2
 L  c3
 L  c4
 L  c5
 L  c6
 G  c1
COLUMNS
    ss[1]     c1        1
    ss[1]     OBJ       1000
    s[1]      c2        1
    s[1]      OBJ       -1000
    s[2]      c3        1
    s[2]      OBJ       -1000
    s[3]      c4        1
    s[3]      OBJ       -1000
    s[4]      c5        1
    s[4]      OBJ       -1000
    s[5]      c6        1
    s[5]      OBJ       -1000
    MARKER    'MARKER'                 'INTORG'
    x[1]      c2        943
    x[1]      c3        184
    x[1]      c4        929
    x[1]      c5        97
    x[1]      c6        734
    x[1]      c1        556
    x[1]      OBJ       -954
    x[2]      c2        948
    x[2]      c3        613
    x[2]      c4        402
    x[2]      c5        316
    x[2]      c6        608
    x[2]      c1        125
    x[2]      OBJ       -1365
    x[3]      c2        984
    x[3]      c3        282
    x[3]      c4        218
    x[3]      c5        805
    x[3]      c6        782
    x[3]      c1        736
    x[3]      OBJ       -824
    x[4]      c2        859
    x[4]      c3        608
    x[4]      c4        930
    x[4]      c5        788
    x[4]      c6        477
    x[4]      c1        557
    x[4]      OBJ       -961
    x[5]      c2        801
    x[5]      c3        85
    x[5]      c4        667
    x[5]      c5        517
    x[5]      c6        393
    x[5]      c1        301
    x[5]      OBJ       -1246
    x[6]      c2        768
    x[6]      c3        476
    x[6]      c4        848
    x[6]      c5        918
    x[6]      c6        720
    x[6]      c1        6
    x[6]      OBJ       -1780
    x[7]      c2        229
    x[7]      c3        48
    x[7]      c4        304
    x[7]      c5        716
    x[7]      c6        867
    x[7]      c1        111
    x[7]      OBJ       -1340
    x[8]      c2        497
    x[8]      c3        604
    x[8]      c4        276
    x[8]      c5        751
    x[8]      c6        993
    x[8]      c1        16
    x[8]      OBJ       -1522
    x[9]      c2        299
    x[9]      c3        501
    x[9]      c4        572
    x[9]      c5        716
    x[9]      c6        170
    x[9]      c1        704
    x[9]      OBJ       -894
    x[10]     c2        88
    x[10]     c3        49
    x[10]     c4        693
    x[10]     c5        347
    x[10]     c6        45
    x[10]     c1        952
    x[10]     OBJ       -31
    x[11]     c2        113
    x[11]     c3        4
    x[11]     c4        739
    x[11]     c5        763
    x[11]     c6        739
    x[11]     c1        408
    x[11]     OBJ       -1176
    x[12]     c2        685
    x[12]     c3        253
    x[12]     c4        853
    x[12]     c5        613
    x[12]     c6        650
    x[12]     c1        492
    x[12]     OBJ       -1221
    x[13]     c2        24
    x[13]     c3        227
    x[13]     c4        829
    x[13]     c5        202
    x[13]     c6        452
    x[13]     c1        163
    x[13]     OBJ       -1309
    x[14]     c2        169
    x[14]     c3        405
    x[14]     c4        963
    x[14]     c5        816
    x[14]     c6        341
    x[14]     c1        938
    x[14]     OBJ       -393
    x[15]     c2        28
    x[15]     c3        348
    x[15]     c4        659
    x[15]     c5        62
    x[15]     c6        427
    x[15]     c1        315
    x[15]     OBJ       -1032
    x[16]     c2        112
    x[16]     c3        47
    x[16]     c4        570
    x[16]     c5        304
    x[16]     c6        734
    x[16]     c1        949
    x[16]     OBJ       -454
    x[17]     c2        906
    x[17]     c3        277
    x[17]     c4        383
    x[17]     c5        145
    x[17]     c6        661
    x[17]     c1        670
    x[17]     OBJ       -580
    x[18]     c2        639
    x[18]     c3        14
    x[18]     c4        699
    x[18]     c5        850
    x[18]     c6        802
    x[18]     c1        1000
    x[18]     OBJ       -344
    x[19]     c2        14
    x[19]     c3        91
    x[19]     c4        919
    x[19]     c5        800
    x[19]     c6        757
    x[19]     c1        457
    x[19]     OBJ       -939
    x[20]     c2        287
    x[20]     c3        638
    x[20]     c4        232
    x[20]     c5        729
    x[20]     c6        388
    x[20]     c1        816
    x[20]     OBJ       -479
    x[21]     c2        619
    x[21]     c3        931
    x[21]     c4        915
    x[21]     c5        486
    x[21]     c6        760
    x[21]     c1        357
    x[21]     OBJ       -1146
    x[22]     c2        446
    x[22]     c3        998
    x[22]     c4        353
    x[22]     c5        527
    x[22]     c6        794
    x[22]     c1        495
    x[22]     OBJ       -1181
    x[23]     c2        956
    x[23]     c3        336
    x[23]     c4        115
    x[23]     c5        425
    x[23]     c6        696
    x[23]     c1        916
    x[23]     OBJ       -756
    x[24]     c2        665
    x[24]     c3        523
    x[24]     c4        169
    x[24]     c5        510
    x[24]     c6        879
    x[24]     c1        852
    x[24]     OBJ       -748
    x[25]     c2        300
    x[25]     c3        714
    x[25]     c4        52
    x[25]     c5        906
    x[25]     c6        659
    x[25]     c1        614
    x[25]     OBJ       -640
    x[26]     c2        431
    x[26]     c3        35
    x[26]     c4        481
    x[26]     c5        108
    x[26]     c6        64
    x[26]     c1        161
    x[26]     OBJ       -820
    x[27]     c2        313
    x[27]     c3        260
    x[27]     c4        858
    x[27]     c5        751
    x[27]     c6        787
    x[27]     c1        60
    x[27]     OBJ       -1298
    x[28]     c2        257
    x[28]     c3        327
    x[28]     c4        872
    x[28]     c5        888
    x[28]     c6        468
    x[28]     c1        382
    x[28]     OBJ       -1296
    x[29]     c2        886
    x[29]     c3        877
    x[29]     c4        334
    x[29]     c5        416
    x[29]     c6        161
    x[29]     c1        373
    x[29]     OBJ       -938
    x[30]     c2        575
    x[30]     c3        145
    x[30]     c4        47
    x[30]     c5        402
    x[30]     c6        124
    x[30]     c1        570
    x[30]     OBJ       -680
    x[31]     c2        948
    x[31]     c3        417
    x[31]     c4        27
    x[31]     c5        942
    x[31]     c6        89
    x[31]     c1        182
    x[31]     OBJ       -1435
    x[32]     c2        851
    x[32]     c3        803
    x[32]     c4        4
    x[32]     c5        504
    x[32]     c6        42
    x[32]     c1        934
    x[32]     OBJ       -365
    x[33]     c2        882
    x[33]     c3        822
    x[33]     c4        87
    x[33]     c5        385
    x[33]     c6        223
    x[33]     c1        129
    x[33]     OBJ       -1101
    x[34]     c2        182
    x[34]     c3        409
    x[34]     c4        87
    x[34]     c5        351
    x[34]     c6        715
    x[34]     c1        542
    x[34]     OBJ       -740
    x[35]     c2        205
    x[35]     c3        34
    x[35]     c4        829
    x[35]     c5        352
    x[35]     c6        227
    x[35]     c1        767
    x[35]     OBJ       -686
    x[36]     c2        551
    x[36]     c3        875
    x[36]     c4        484
    x[36]     c5        527
    x[36]     c6        259
    x[36]     c1        964
    x[36]     OBJ       -369
    x[37]     c2        1
    x[37]     c3        1000
    x[37]     c4        426
    x[37]     c5        369
    x[37]     c6        784
    x[37]     c1        896
    x[37]     OBJ       -655
    x[38]     c2        956
    x[38]     c3        352
    x[38]     c4        824
    x[38]     c5        502
    x[38]     c6        679
    x[38]     c1        350
    x[38]     OBJ       -1200
    x[39]     c2        111
    x[39]     c3        951
    x[39]     c4        401
    x[39]     c5        827
    x[39]     c6        360
    x[39]     c1        178
    x[39]     OBJ       -1481
    x[40]     c2        455
    x[40]     c3        246
    x[40]     c4        14
    x[40]     c5        83
    x[40]     c6        982
    x[40]     c1        557
    x[40]     OBJ       -631
    x[41]     c2        186
    x[41]     c3        388
    x[41]     c4        987
    x[41]     c5        95
    x[41]     c6        392
    x[41]     c1        975
    x[41]     OBJ       -245
    x[42]     c2        76
    x[42]     c3        696
    x[42]     c4        282
    x[42]     c5        230
    x[42]     c6        732
    x[42]     c1        70
    x[42]     OBJ       -1107
    x[43]     c2        325
    x[43]     c3        413
    x[43]     c4        276
    x[43]     c5        189
    x[43]     c6        677
    x[43]     c1        226
    x[43]     OBJ       -897
    x[44]     c2        247
    x[44]     c3        799
    x[44]     c4        663
    x[44]     c5        568
    x[44]     c6        138
    x[44]     c1        356
    x[44]     OBJ       -1104
    x[45]     c2        767
    x[45]     c3        325
    x[45]     c4        582
    x[45]     c5        48
    x[45]     c6        439
    x[45]     c1        404
    x[45]     OBJ       -953
    x[46]     c2        382
    x[46]     c3        615
    x[46]     c4        865
    x[46]     c5        139
    x[46]     c6        32
    x[46]     c1        79
    x[46]     OBJ       -1217
    x[47]     c2        924
    x[47]     c3        335
    x[47]     c4        74
    x[47]     c5        976
    x[47]     c6        685
    x[47]     c1        833
    x[47]     OBJ       -861
    x[48]     c2        481
    x[48]     c3        856
    x[48]     c4        658
    x[48]     c5        957
    x[48]     c6        779
    x[48]     c1        616
    x[48]     OBJ       -1109
    x[49]     c2        262
    x[49]     c3        324
    x[49]     c4        222
    x[49]     c5        312
    x[49]     c6        69
    x[49]     c1        575
    x[49]     OBJ       -572
    x[50]     c2        869
    x[50]     c3        665
    x[50]     c4        9
    x[50]     c5        359
    x[50]     c6        863
    x[50]     c1        987
    x[50]     OBJ       -755
    x[51]     c2        204
    x[51]     c3        431
    x[51]     c4        881
    x[51]     c5        253
    x[51]     c6        359
    x[51]     c1        340
    x[51]     OBJ       -912
    x[52]     c2        974
    x[52]     c3        771
    x[52]     c4        65
    x[52]     c5        505
    x[52]     c6        413
    x[52]     c1        794
    x[52]     OBJ       -589
    x[53]     c2        952
    x[53]     c3        586
    x[53]     c4        718
    x[53]     c5        749
    x[53]     c6        856
    x[53]     c1        321
    x[53]     OBJ       -1253
    x[54]     c2        509
    x[54]     c3        198
    x[54]     c4        816
    x[54]     c5        174
    x[54]     c6        881
    x[54]     c1        337
    x[54]     OBJ       -979
    x[55]     c2        805
    x[55]     c3        683
    x[55]     c4        571
    x[55]     c5        1
    x[55]     c6        426
    x[55]     c1        580
    x[55]     OBJ       -672
    x[56]     c2        965
    x[56]     c3        985
    x[56]     c4        757
    x[56]     c5        65
    x[56]     c6        745
    x[56]     c1        920
    x[56]     OBJ       -567
    x[57]     c2        284
    x[57]     c3        681
    x[57]     c4        281
    x[57]     c5        604
    x[57]     c6        286
    x[57]     c1        425
    x[57]     OBJ       -873
    x[58]     c2        978
    x[58]     c3        523
    x[58]     c4        697
    x[58]     c5        755
    x[58]     c6        221
    x[58]     c1        170
    x[58]     OBJ       -1186
    x[59]     c2        643
    x[59]     c3        639
    x[59]     c4        369
    x[59]     c5        467
    x[59]     c6        146
    x[59]     c1        955
    x[59]     OBJ       -368
    x[60]     c2        851
    x[60]     c3        318
    x[60]     c4        709
    x[60]     c5        707
    x[60]     c6        770
    x[60]     c1        581
    x[60]     OBJ       -1060
    x[61]     c2        849
    x[61]     c3        873
    x[61]     c4        971
    x[61]     c5        472
    x[61]     c6        726
    x[61]     c1        739
    x[61]     OBJ       -753
    x[62]     c2        329
    x[62]     c3        697
    x[62]     c4        78
    x[62]     c5        222
    x[62]     c6        554
    x[62]     c1        622
    x[62]     OBJ       -593
    x[63]     c2        282
    x[63]     c3        854
    x[63]     c4        327
    x[63]     c5        25
    x[63]     c6        951
    x[63]     c1        473
    x[63]     OBJ       -1008
    x[64]     c2        510
    x[64]     c3        267
    x[64]     c4        576
    x[64]     c5        943
    x[64]     c6        942
    x[64]     c1        789
    x[64]     OBJ       -881
    x[65]     c2        901
    x[65]     c3        340
    x[65]     c4        467
    x[65]     c5        582
    x[65]     c6        517
    x[65]     c1        946
    x[65]     OBJ       -752
    x[66]     c2        855
    x[66]     c3        280
    x[66]     c4        995
    x[66]     c5        571
    x[66]     c6        842
    x[66]     c1        499
    x[66]     OBJ       -1257
    x[67]     c2        521
    x[67]     c3        632
    x[67]     c4        756
    x[67]     c5        45
    x[67]     c6        89
    x[67]     c1        666
    x[67]     OBJ       -806
    x[68]     c2        577
    x[68]     c3        977
    x[68]     c4        51
    x[68]     c5        474
    x[68]     c6        84
    x[68]     c1        546
    x[68]     OBJ       -743
    x[69]     c2        881
    x[69]     c3        593
    x[69]     c4        279
    x[69]     c5        154
    x[69]     c6        441
    x[69]     c1        630
    x[69]     OBJ       -916
    x[70]     c2        291
    x[70]     c3        786
    x[70]     c4        618
    x[70]     c5        833
    x[70]     c6        868
    x[70]     c1        997
    x[70]     OBJ       -544
    x[71]     c2        598
    x[71]     c3        410
    x[71]     c4        358
    x[71]     c5        603
    x[71]     c6        510
    x[71]     c1        462
    x[71]     OBJ       -1197
    x[72]     c2        606
    x[72]     c3        526
    x[72]     c4        337
    x[72]     c5        538
    x[72]     c6        442
    x[72]     c1        750
    x[72]     OBJ       -746
    x[73]     c2        800
    x[73]     c3        65
    x[73]     c4        54
    x[73]     c5        399
    x[73]     c6        119
    x[73]     c1        841
    x[73]     OBJ       -489
    x[74]     c2        493
    x[74]     c3        479
    x[74]     c4        490
    x[74]     c5        31
    x[74]     c6        621
    x[74]     c1        795
    x[74]     OBJ       -527
    x[75]     c2        964
    x[75]     c3        713
    x[75]     c4        127
    x[75]     c5        296
    x[75]     c6        31
    x[75]     c1        2
    x[75]     OBJ       -1146
    x[76]     c2        951
    x[76]     c3        569
    x[76]     c4        93
    x[76]     c5        762
    x[76]     c6        604
    x[76]     c1        522
    x[76]     OBJ       -1206
    x[77]     c2        971
    x[77]     c3        154
    x[77]     c4        355
    x[77]     c5        728
    x[77]     c6        717
    x[77]     c1        778
    x[77]     OBJ       -766
    x[78]     c2        739
    x[78]     c3        852
    x[78]     c4        295
    x[78]     c5        575
    x[78]     c6        823
    x[78]     c1        42
    x[78]     OBJ       -1690
    x[79]     c2        759
    x[79]     c3        916
    x[79]     c4        746
    x[79]     c5        169
    x[79]     c6        630
    x[79]     c1        714
    x[79]     OBJ       -934
    x[80]     c2        747
    x[80]     c3        661
    x[80]     c4        17
    x[80]     c5        459
    x[80]     c6        884
    x[80]     c1        645
    x[80]     OBJ       -1061
    x[81]     c2        791
    x[81]     c3        230
    x[81]     c4        47
    x[81]     c5        145
    x[81]     c6        926
    x[81]     c1        855
    x[81]     OBJ       -668
    x[82]     c2        839
    x[82]     c3        674
    x[82]     c4        416
    x[82]     c5        671
    x[82]     c6        381
    x[82]     c1        396
    x[82]     OBJ       -952
    x[83]     c2        203
    x[83]     c3        156
    x[83]     c4        156
    x[83]     c5        625
    x[83]     c6        560
    x[83]     c1        768
    x[83]     OBJ       -526
    x[84]     c2        681
    x[84]     c3        703
    x[84]     c4        572
    x[84]     c5        574
    x[84]     c6        405
    x[84]     c1        392
    x[84]     OBJ       -1210
    x[85]     c2        729
    x[85]     c3        739
    x[85]     c4        771
    x[85]     c5        261
    x[85]     c6        441
    x[85]     c1        141
    x[85]     OBJ       -1434
    x[86]     c2        682
    x[86]     c3        552
    x[86]     c4        11
    x[86]     c5        180
    x[86]     c6        891
    x[86]     c1        544
    x[86]     OBJ       -922
    x[87]     c2        952
    x[87]     c3        541
    x[87]     c4        426
    x[87]     c5        768
    x[87]     c6        338
    x[87]     c1        847
    x[87]     OBJ       -831
    x[88]     c2        622
    x[88]     c3        752
    x[88]     c4        133
    x[88]     c5        827
    x[88]     c6        5
    x[88]     c1        263
    x[88]     OBJ       -1141
    x[89]     c2        870
    x[89]     c3        225
    x[89]     c4        920
    x[89]     c5        926
    x[89]     c6        960
    x[89]     c1        325
    x[89]     OBJ       -1461
    x[90]     c2        39
    x[90]     c3        128
    x[90]     c4        712
    x[90]     c5        925
    x[90]     c6        376
    x[90]     c1        227
    x[90]     OBJ       -994
    x[91]     c2        86
    x[91]     c3        449
    x[91]     c4        62
    x[91]     c5        75
    x[91]     c6        876
    x[91]     c1        765
    x[91]     OBJ       -483
    x[92]     c2        798
    x[92]     c3        786
    x[92]     c4        874
    x[92]     c5        656
    x[92]     c6        77
    x[92]     c1        128
    x[92]     OBJ       -1397
    x[93]     c2        693
    x[93]     c3        798
    x[93]     c4        878
    x[93]     c5        190
    x[93]     c6        33
    x[93]     c1        10
    x[93]     OBJ       -1529
    x[94]     c2        39
    x[94]     c3        562
    x[94]     c4        920
    x[94]     c5        976
    x[94]     c6        360
    x[94]     c1        973
    x[94]     OBJ       -574
    x[95]     c2        632
    x[95]     c3        97
    x[95]     c4        249
    x[95]     c5        536
    x[95]     c6        520
    x[95]     c1        162
    x[95]     OBJ       -1122
    x[96]     c2        900
    x[96]     c3        58
    x[96]     c4        511
    x[96]     c5        267
    x[96]     c6        74
    x[96]     c1        743
    x[96]     OBJ       -632
    x[97]     c2        729
    x[97]     c3        218
    x[97]     c4        255
    x[97]     c5        993
    x[97]     c6        367
    x[97]     c1        208
    x[97]     OBJ       -1244
    x[98]     c2        192
    x[98]     c3        706
    x[98]     c4        539
    x[98]     c5        471
    x[98]     c6        636
    x[98]     c1        223
    x[98]     OBJ       -1343
    x[99]     c2        970
    x[99]     c3        363
    x[99]     c4        639
    x[99]     c5        446
    x[99]     c6        954
    x[99]     c1        981
    x[99]     OBJ       -657
    x[100]    c2        346
    x[100]    c3        705
    x[100]    c4        567
    x[100]    c5        470
    x[100]    c6        225
    x[100]    c1        143
    x[100]    OBJ       -1321
RHS
    rhs       c2        42813
    rhs       c3        36845
    rhs       c4        36146
    rhs       c5        37149
    rhs       c6        39151
    rhs       c1        39485
RANGES
BOUNDS
 LO bounds    ss[1]     0
 PL bounds    ss[1]
 MI bounds    s[1]
 UP bounds    s[1]      0
 MI bounds    s[2]
 UP bounds    s[2]      0
 MI bounds    s[3]
 UP bounds    s[3]      0
 MI bounds    s[4]
 UP bounds    s[4]      0
 MI bounds    s[5]
 UP bounds    s[5]      0
 BV bounds    x[1]
 BV bounds    x[2]
 BV bounds    x[3]
 BV bounds    x[4]
 BV bounds    x[5]
 BV bounds    x[6]
 BV bounds    x[7]
 BV bounds    x[8]
 BV bounds    x[9]
 BV bounds    x[10]
 BV bounds    x[11]
 BV bounds    x[12]
 BV bounds    x[13]
 BV bounds    x[14]
 BV bounds    x[15]
 BV bounds    x[16]
 BV bounds    x[17]
 BV bounds    x[18]
 BV bounds    x[19]
 BV bounds    x[20]
 BV bounds    x[21]
 BV bounds    x[22]
 BV bounds    x[23]
 BV bounds    x[24]
 BV bounds    x[25]
 BV bounds    x[26]
 BV bounds    x[27]
 BV bounds    x[28]
 BV bounds    x[29]
 BV bounds    x[30]
 BV bounds    x[31]
 BV bounds    x[32]
 BV bounds    x[33]
 BV bounds    x[34]
 BV bounds    x[35]
 BV bounds    x[36]
 BV bounds    x[37]
 BV bounds    x[38]
 BV bounds    x[39]
 BV bounds    x[40]
 BV bounds    x[41]
 BV bounds    x[42]
 BV bounds    x[43]
 BV bounds    x[44]
 BV bounds    x[45]
 BV bounds    x[46]
 BV bounds    x[47]
 BV bounds    x[48]
 BV bounds    x[49]
 BV bounds    x[50]
 BV bounds    x[51]
 BV bounds    x[52]
 BV bounds    x[53]
 BV bounds    x[54]
 BV bounds    x[55]
 BV bounds    x[56]
 BV bounds    x[57]
 BV bounds    x[58]
 BV bounds    x[59]
 BV bounds    x[60]
 BV bounds    x[61]
 BV bounds    x[62]
 BV bounds    x[63]
 BV bounds    x[64]
 BV bounds    x[65]
 BV bounds    x[66]
 BV bounds    x[67]
 BV bounds    x[68]
 BV bounds    x[69]
 BV bounds    x[70]
 BV bounds    x[71]
 BV bounds    x[72]
 BV bounds    x[73]
 BV bounds    x[74]
 BV bounds    x[75]
 BV bounds    x[76]
 BV bounds    x[77]
 BV bounds    x[78]
 BV bounds    x[79]
 BV bounds    x[80]
 BV bounds    x[81]
 BV bounds    x[82]
 BV bounds    x[83]
 BV bounds    x[84]
 BV bounds    x[85]
 BV bounds    x[86]
 BV bounds    x[87]
 BV bounds    x[88]
 BV bounds    x[89]
 BV bounds    x[90]
 BV bounds    x[91]
 BV bounds    x[92]
 BV bounds    x[93]
 BV bounds    x[94]
 BV bounds    x[95]
 BV bounds    x[96]
 BV bounds    x[97]
 BV bounds    x[98]
 BV bounds    x[99]
 BV bounds    x[100]
ENDATA
